n_res = 3;
rcap = [30, 112, 107];
rtype = [1, 2, 2];
n_tasks = 16;
modes = [ {1, 2, 3}, {4, 5, 6}, {7, 8, 9}, {10, 11, 12}, {13, 14, 15}, {16, 17, 18}, {19, 20, 21}, {22, 23, 24}, {25, 26, 27}, {28, 29, 30}, {31, 32, 33}, {34, 35, 36}, {37, 38, 39}, {40, 41, 42}, {43, 44, 45}, {46, 47, 48} ];
succ = [ {4, 7, 8}, {5, 6, 12}, {4, 11, 15}, {9, 10, 13}, {7, 8, 13}, {9, 15}, {10}, {10, 16}, {14}, {14}, {13, 16}, {15, 16}, {14}, {}, {}, {} ];
n_opt = 48;
dur = [2, 5, 6, 1, 6, 8, 1, 8, 10, 2, 8, 10, 2, 5, 10, 2, 2, 3, 3, 4, 7, 8, 8, 9, 7, 8, 9, 5, 5, 10, 7, 8, 9, 3, 5, 9, 2, 5, 8, 6, 7, 10, 2, 5, 7, 7, 8, 9];
rreq = [|  0,  0,  0,  6,  0,  0,  0,  9,  0,  5,  0,  2,  9,  7,  0, 10, 10, 10,  2,  0,  0,  4,  6,  0,  5,  5,  0,  7,  7,  6,  3,  0,  0,  0,  8,  6,  0,  3,  0,  0,  4,  0,  0,  6,  4,  0,  0,  0
        |  3,  2,  1,  9,  8,  8,  5,  3,  2,  7,  5,  4,  3,  2,  2,  5,  7,  2,  7,  5,  4,  3,  4,  2,  4,  4,  4,  8, 10,  4,  8,  7,  6,  9,  4,  2,  9,  9,  8, 10,  8,  6,  8,  7,  7,  9,  6,  5
        |  8,  7,  6,  4,  4,  3,  6,  4,  3,  5,  5,  2,  6,  5,  5,  5,  4,  3,  6,  3,  3,  9,  8,  2,  8,  6,  4,  5,  4,  1,  8,  5,  2,  4,  3,  3,  6,  5,  5, 10,  8,  6,  8,  7,  5,  9,  8,  5 |];
